101 89 168 81 116 19 179 125 49 154 60 98 176 6 48 199 122 41 51 107 191 127 194 79 133 150 61 131 198 158 87 50 1 103 76 34 8 170 175 157 63 173 94 35 166 161 83 66 197 129 67 57 39 64 145 143 52 144 27 9 151 95 25 36 72 78 32 159 71 13 58 30 54 195 15 128 69 152 182 86 20 130 147 126 162 177 141 90 167 97 193 185 40 120 7 24 115 28 190 172 21 65 93 138 155 47 110 2 85 82 44 99 29 112 43 55 113 153 109 10 0 77 108 169 74 37 174 80 164 123 124 196 160 136 84 186 46 105 16 3 4 181 149 165 91 118 121 17 137 106 148 68 111 189 192 73 18 156 183 31 22 12 180 117 70 100 5 62 38 11 114 119 23 42 187 26 14 45 53 184 171 92 146 178 132 188 135 56 59 88 104 96 134 140 142 75 139 102 33 163